min: 2 x11 + 5 x12 + 1 x13 + 2 x14 + 5 x15
   + 4 x21 + 4 x22 + 9 x23 + 1 x24 + 4 x25
   + 1 x31 + 8 x32 + 5 x33 + 6 x34 + 2 x35
   + 7 x41 + 1 x42 + 2 x43 + 1 x44 + 8 x45
   + 50 x1 + 32 x2 + 28 x3 + 36 x4;

   +   x11 +   x12 +   x13 +   x14 +   x15 <= 35 x1;
   +   x21 +   x22 +   x23 +   x24 +   x25 <= 28 x2;
   +   x31 +   x32 +   x33 +   x34 +   x35 <= 22 x3;
   +   x41 +   x42 +   x43 +   x44 +   x45 <= 28 x4;


   +   x11 +   x21 +   x31 +   x41 >= 14 ;
   +   x12 +   x22 +   x32 +   x42 >= 12 ;
   +   x13 +   x23 +   x33 +   x43 >= 10 ;
   +   x14 +   x24 +   x34 +   x44 >= 12 ;
   +   x15 +   x25 +   x35 +   x45 >=  8 ;

bin x1,x2,x3,x4;
